
Gurobi 11.0.3 (linux64) logging started Fri Nov 22 20:54:06 2024

Set parameter LogFile to value "/home/yihong/Coding/OR_SUC/SUC_results_bigM100000_thread4/case24_ieee_rts_theta0.5_epsilon0.025_gurobi_seed1160000_num_gen100_N_WDR100_load_scaling_factor1_proposed_T28quadra_cost.txt"
Set parameter TimeLimit to value 3600
Gurobi Optimizer version 11.0.3 build v11.0.3rc0 (linux64 - "Ubuntu 20.04.6 LTS")

CPU model: AMD EPYC 7532 32-Core Processor, instruction set [SSE2|AVX|AVX2]
Thread count: 64 physical cores, 128 logical processors, using up to 4 threads

Optimize a model with 60682 rows, 34821 columns and 827226 nonzeros
Model fingerprint: 0x85431041
Model has 2800 quadratic constraints
Variable types: 32021 continuous, 2800 integer (2800 binary)
Coefficient statistics:
  Matrix range     [3e-04, 3e+03]
  QMatrix range    [2e-03, 8e-03]
  QLMatrix range   [6e-03, 6e+01]
  Objective range  [1e+00, 1e+00]
  Bounds range     [1e+00, 1e+00]
  RHS range        [1e+00, 9e+03]
Presolve removed 49142 rows and 15024 columns
Presolve time: 0.30s
Presolved: 11540 rows, 19797 columns, 72113 nonzeros
Presolved model has 2800 quadratic constraint(s)
Variable types: 16997 continuous, 2800 integer (2800 binary)

Root relaxation: objective 8.350770e+04, 9595 iterations, 0.28 seconds (0.40 work units)

    Nodes    |    Current Node    |     Objective Bounds      |     Work
 Expl Unexpl |  Obj  Depth IntInf | Incumbent    BestBd   Gap | It/Node Time

H    0     0                    752383.44296 83507.7012  88.9%     -    0s
*    0     0               0    752383.44296 83507.7012  88.9%     -    0s
     0     0 432634.679    0  904 752383.443 432634.679  42.5%     -    1s
     0     0 706336.232    0  507 752383.443 706336.232  6.12%     -    1s
     0     0 706446.905    0   75 752383.443 706446.905  6.11%     -    2s
     0     0 706594.763    0   83 752383.443 706594.763  6.09%     -    2s
     0     0 706613.469    0   83 752383.443 706613.469  6.08%     -    2s
     0     0 706613.469    0   83 752383.443 706613.469  6.08%     -    2s
     0     0 706614.614    0   97 752383.443 706614.614  6.08%     -    2s
     0     0 706620.185    0   97 752383.443 706620.185  6.08%     -    2s
     0     2 706620.185    0   97 752383.443 706620.185  6.08%     -    3s
    77    85 707033.886   18   40 752383.443 706636.747  6.08%  46.4    5s
H  279   249                    706829.55695 706636.747  0.03%  33.7    7s
*  279   249              63    706829.55695 706636.747  0.03%  33.7    7s

Cutting planes:
  Gomory: 8
  Lift-and-project: 12
  Implied bound: 249
  MIR: 28
  Flow cover: 99
  RLT: 504
  Relax-and-lift: 96

Explored 304 nodes (37070 simplex iterations) in 8.37 seconds (10.71 work units)
Thread count was 4 (of 128 available processors)

Solution count 3: 706830 706830 752383 

Optimal solution found (tolerance 1.00e-03)
Warning: max constraint violation (1.2845e-07) exceeds tolerance
Best objective 7.068295569455e+05, best bound 7.066367473505e+05, gap 0.0273%
